c forall Vars 42
c Exists Vars 65
c Introduced Vars 16
c Original Exists Vars 49
c Eliminated Vars number 55
p cnf 107 440
e 1 2 3 4 5 6 7 8 9 10 11 12 13 14 15 16 17 18 19 20 21 22 23 24 25 26 27 28 29 30 31 32 33 34 35 36 37 38 39 40 41 42 43 44 45 46 47 48 49 0
a 50 51 52 53 54 55 56 57 58 59 60 61 62 63 64 65 66 67 68 69 70 71 72 73 74 75 76 77 78 79 80 81 82 83 84 85 86 87 88 89 90 91 0
e 92 93 94 95 96 97 98 99 100 101 102 103 104 105 106 107 0
-43 0
-44 0
-46 0
-45 0
-43 92 0
-44 92 0
-46 92 0
-45 92 0
-36 92 0
-37 92 0
-39 92 0
-38 92 0
36 -44 -49 -48 43 -92 0
-36 -44 -49 48 -92 0
-36 43 49 -92 0
-36 43 -49 -48 -92 0
37 -45 49 48 44 -92 0
-37 -45 49 -48 -92 0
-37 44 -49 -92 0
-37 44 49 48 -92 0
38 -46 -49 48 45 -92 0
-38 -46 -49 -48 -92 0
-38 45 49 -92 0
-38 45 -49 48 -92 0
39 -43 49 48 47 46 -92 0
-39 -43 49 48 -47 -92 0
-39 46 -49 -92 0
-39 46 49 -48 -92 0
-39 46 49 48 47 -92 0
-36 93 0
-37 93 0
-39 93 0
-38 93 0
-29 93 0
-30 93 0
-32 93 0
-31 93 0
29 -37 -42 -41 36 -93 0
-29 -37 -42 41 -93 0
-29 36 42 -93 0
-29 36 -42 -41 -93 0
30 -38 42 41 37 -93 0
-30 -38 42 -41 -93 0
-30 37 -42 -93 0
-30 37 42 41 -93 0
31 -39 -42 41 38 -93 0
-31 -39 -42 -41 -93 0
-31 38 42 -93 0
-31 38 -42 41 -93 0
32 -36 42 41 40 39 -93 0
-32 -36 42 41 -40 -93 0
-32 39 -42 -93 0
-32 39 42 -41 -93 0
-32 39 42 41 40 -93 0
-29 94 0
-30 94 0
-32 94 0
-31 94 0
-22 94 0
-23 94 0
-25 94 0
-24 94 0
22 -30 -35 -34 29 -94 0
-22 -30 -35 34 -94 0
-22 29 35 -94 0
-22 29 -35 -34 -94 0
23 -31 35 34 30 -94 0
-23 -31 35 -34 -94 0
-23 30 -35 -94 0
-23 30 35 34 -94 0
24 -32 -35 34 31 -94 0
-24 -32 -35 -34 -94 0
-24 31 35 -94 0
-24 31 -35 34 -94 0
25 -29 35 34 33 32 -94 0
-25 -29 35 34 -33 -94 0
-25 32 -35 -94 0
-25 32 35 -34 -94 0
-25 32 35 34 33 -94 0
-22 95 0
-23 95 0
-25 95 0
-24 95 0
-15 95 0
-16 95 0
-18 95 0
-17 95 0
15 -23 -28 -27 22 -95 0
-15 -23 -28 27 -95 0
-15 22 28 -95 0
-15 22 -28 -27 -95 0
16 -24 28 27 23 -95 0
-16 -24 28 -27 -95 0
-16 23 -28 -95 0
-16 23 28 27 -95 0
17 -25 -28 27 24 -95 0
-17 -25 -28 -27 -95 0
-17 24 28 -95 0
-17 24 -28 27 -95 0
18 -22 28 27 26 25 -95 0
-18 -22 28 27 -26 -95 0
-18 25 -28 -95 0
-18 25 28 -27 -95 0
-18 25 28 27 26 -95 0
-15 96 0
-16 96 0
-18 96 0
-17 96 0
-8 96 0
-9 96 0
-11 96 0
-10 96 0
8 -16 -21 -20 15 -96 0
-8 -16 -21 20 -96 0
-8 15 21 -96 0
-8 15 -21 -20 -96 0
9 -17 21 20 16 -96 0
-9 -17 21 -20 -96 0
-9 16 -21 -96 0
-9 16 21 20 -96 0
10 -18 -21 20 17 -96 0
-10 -18 -21 -20 -96 0
-10 17 21 -96 0
-10 17 -21 20 -96 0
11 -15 21 20 19 18 -96 0
-11 -15 21 20 -19 -96 0
-11 18 -21 -96 0
-11 18 21 -20 -96 0
-11 18 21 20 19 -96 0
-8 97 0
-9 97 0
-11 97 0
-10 97 0
-1 97 0
-2 97 0
-4 97 0
-3 97 0
1 -9 -14 -13 8 -97 0
-1 -9 -14 13 -97 0
-1 8 14 -97 0
-1 8 -14 -13 -97 0
2 -10 14 13 9 -97 0
-2 -10 14 -13 -97 0
-2 9 -14 -97 0
-2 9 14 13 -97 0
3 -11 -14 13 10 -97 0
-3 -11 -14 -13 -97 0
-3 10 14 -97 0
-3 10 -14 13 -97 0
4 -8 14 13 12 11 -97 0
-4 -8 14 13 -12 -97 0
-4 11 -14 -97 0
-4 11 14 -13 -97 0
-4 11 14 13 12 -97 0
85 86 88 87 78 79 81 80 102 101 100 99 98 0
85 86 88 87 -78 104 103 102 101 100 99 98 0
85 86 88 87 104 103 102 101 100 99 98 0
85 86 88 87 91 104 103 102 101 100 99 98 0
85 86 88 87 90 104 103 102 101 100 99 98 0
85 86 88 87 91 104 103 102 101 100 99 98 0
85 86 88 87 90 104 103 102 101 100 99 98 0
85 86 88 87 78 -104 103 102 101 100 99 98 0
85 86 88 87 105 -104 103 102 101 100 99 98 0
85 86 88 87 91 105 -104 103 102 101 100 99 98 0
85 86 88 87 -91 -90 105 -104 103 102 101 100 99 98 0
85 86 88 87 -91 90 -105 -104 103 102 101 100 99 98 0
85 86 88 87 -79 105 104 -103 102 101 100 99 98 0
85 86 88 87 105 104 -103 102 101 100 99 98 0
85 86 88 87 -91 105 104 -103 102 101 100 99 98 0
85 86 88 87 -90 105 104 -103 102 101 100 99 98 0
85 86 88 87 -91 105 104 -103 102 101 100 99 98 0
85 86 88 87 -90 105 104 -103 102 101 100 99 98 0
85 86 88 87 79 -105 104 -103 102 101 100 99 98 0
85 86 88 87 106 -105 104 -103 102 101 100 99 98 0
85 86 88 87 -91 106 -105 104 -103 102 101 100 99 98 0
85 86 88 87 91 90 106 -105 104 -103 102 101 100 99 98 0
85 86 88 87 91 -90 -106 -105 104 -103 102 101 100 99 98 0
85 86 88 87 -80 106 105 -104 -103 102 101 100 99 98 0
85 86 88 87 106 105 -104 -103 102 101 100 99 98 0
85 86 88 87 91 106 105 -104 -103 102 101 100 99 98 0
85 86 88 87 -90 106 105 -104 -103 102 101 100 99 98 0
85 86 88 87 91 106 105 -104 -103 102 101 100 99 98 0
85 86 88 87 -90 106 105 -104 -103 102 101 100 99 98 0
85 86 88 87 80 -106 105 -104 -103 102 101 100 99 98 0
85 86 88 87 107 -106 105 -104 -103 102 101 100 99 98 0
85 86 88 87 91 107 -106 105 -104 -103 102 101 100 99 98 0
85 86 88 87 -91 90 107 -106 105 -104 -103 102 101 100 99 98 0
85 86 88 87 -91 -90 -107 -106 105 -104 -103 102 101 100 99 98 0
85 86 88 87 -81 106 -105 -104 -103 102 101 100 99 98 0
85 86 88 87 106 -105 -104 -103 102 101 100 99 98 0
85 86 88 87 -91 106 -105 -104 -103 102 101 100 99 98 0
85 86 88 87 -90 106 -105 -104 -103 102 101 100 99 98 0
85 86 88 87 -89 106 -105 -104 -103 102 101 100 99 98 0
85 86 88 87 -91 106 -105 -104 -103 102 101 100 99 98 0
85 86 88 87 -90 106 -105 -104 -103 102 101 100 99 98 0
85 86 88 87 -89 106 -105 -104 -103 102 101 100 99 98 0
85 86 88 87 81 -106 -105 -104 -103 102 101 100 99 98 0
85 86 88 87 107 -106 -105 -104 -103 102 101 100 99 98 0
85 86 88 87 -91 107 -106 -105 -104 -103 102 101 100 99 98 0
85 86 88 87 91 -90 107 -106 -105 -104 -103 102 101 100 99 98 0
85 86 88 87 91 90 89 107 -106 -105 -104 -103 102 101 100 99 98 0
85 86 88 87 91 90 -89 -107 -106 -105 -104 -103 102 101 100 99 98 0
78 79 81 80 71 72 74 73 -102 101 100 99 98 0
-71 104 103 -102 101 100 99 98 0
79 104 103 -102 101 100 99 98 0
84 104 103 -102 101 100 99 98 0
83 104 103 -102 101 100 99 98 0
-78 104 103 -102 101 100 99 98 0
84 104 103 -102 101 100 99 98 0
83 104 103 -102 101 100 99 98 0
71 -104 103 -102 101 100 99 98 0
79 105 -104 103 -102 101 100 99 98 0
84 105 -104 103 -102 101 100 99 98 0
-84 -83 105 -104 103 -102 101 100 99 98 0
-78 -105 -104 103 -102 101 100 99 98 0
-84 83 -105 -104 103 -102 101 100 99 98 0
-72 105 104 -103 -102 101 100 99 98 0
80 105 104 -103 -102 101 100 99 98 0
-84 105 104 -103 -102 101 100 99 98 0
-83 105 104 -103 -102 101 100 99 98 0
-79 105 104 -103 -102 101 100 99 98 0
-84 105 104 -103 -102 101 100 99 98 0
-83 105 104 -103 -102 101 100 99 98 0
72 -105 104 -103 -102 101 100 99 98 0
80 106 -105 104 -103 -102 101 100 99 98 0
-84 106 -105 104 -103 -102 101 100 99 98 0
84 83 106 -105 104 -103 -102 101 100 99 98 0
-79 -106 -105 104 -103 -102 101 100 99 98 0
84 -83 -106 -105 104 -103 -102 101 100 99 98 0
-73 106 105 -104 -103 -102 101 100 99 98 0
81 106 105 -104 -103 -102 101 100 99 98 0
84 106 105 -104 -103 -102 101 100 99 98 0
-83 106 105 -104 -103 -102 101 100 99 98 0
-80 106 105 -104 -103 -102 101 100 99 98 0
84 106 105 -104 -103 -102 101 100 99 98 0
-83 106 105 -104 -103 -102 101 100 99 98 0
73 -106 105 -104 -103 -102 101 100 99 98 0
81 107 -106 105 -104 -103 -102 101 100 99 98 0
84 107 -106 105 -104 -103 -102 101 100 99 98 0
-84 83 107 -106 105 -104 -103 -102 101 100 99 98 0
-80 -107 -106 105 -104 -103 -102 101 100 99 98 0
-84 -83 -107 -106 105 -104 -103 -102 101 100 99 98 0
-74 106 -105 -104 -103 -102 101 100 99 98 0
78 106 -105 -104 -103 -102 101 100 99 98 0
-84 106 -105 -104 -103 -102 101 100 99 98 0
-83 106 -105 -104 -103 -102 101 100 99 98 0
-82 106 -105 -104 -103 -102 101 100 99 98 0
-81 106 -105 -104 -103 -102 101 100 99 98 0
-84 106 -105 -104 -103 -102 101 100 99 98 0
-83 106 -105 -104 -103 -102 101 100 99 98 0
-82 106 -105 -104 -103 -102 101 100 99 98 0
74 -106 -105 -104 -103 -102 101 100 99 98 0
78 107 -106 -105 -104 -103 -102 101 100 99 98 0
-84 107 -106 -105 -104 -103 -102 101 100 99 98 0
84 -83 107 -106 -105 -104 -103 -102 101 100 99 98 0
84 83 82 107 -106 -105 -104 -103 -102 101 100 99 98 0
-81 -107 -106 -105 -104 -103 -102 101 100 99 98 0
84 83 -82 -107 -106 -105 -104 -103 -102 101 100 99 98 0
71 72 74 73 64 65 67 66 -101 100 99 98 0
-64 103 102 -101 100 99 98 0
72 103 102 -101 100 99 98 0
77 103 102 -101 100 99 98 0
76 103 102 -101 100 99 98 0
-71 103 102 -101 100 99 98 0
77 103 102 -101 100 99 98 0
76 103 102 -101 100 99 98 0
64 -103 102 -101 100 99 98 0
72 104 -103 102 -101 100 99 98 0
77 104 -103 102 -101 100 99 98 0
-77 -76 104 -103 102 -101 100 99 98 0
-71 -104 -103 102 -101 100 99 98 0
-77 76 -104 -103 102 -101 100 99 98 0
-65 104 103 -102 -101 100 99 98 0
73 104 103 -102 -101 100 99 98 0
-77 104 103 -102 -101 100 99 98 0
-76 104 103 -102 -101 100 99 98 0
-72 104 103 -102 -101 100 99 98 0
-77 104 103 -102 -101 100 99 98 0
-76 104 103 -102 -101 100 99 98 0
65 -104 103 -102 -101 100 99 98 0
73 105 -104 103 -102 -101 100 99 98 0
-77 105 -104 103 -102 -101 100 99 98 0
77 76 105 -104 103 -102 -101 100 99 98 0
-72 -105 -104 103 -102 -101 100 99 98 0
77 -76 -105 -104 103 -102 -101 100 99 98 0
-66 105 104 -103 -102 -101 100 99 98 0
74 105 104 -103 -102 -101 100 99 98 0
77 105 104 -103 -102 -101 100 99 98 0
-76 105 104 -103 -102 -101 100 99 98 0
-73 105 104 -103 -102 -101 100 99 98 0
77 105 104 -103 -102 -101 100 99 98 0
-76 105 104 -103 -102 -101 100 99 98 0
66 -105 104 -103 -102 -101 100 99 98 0
74 106 -105 104 -103 -102 -101 100 99 98 0
77 106 -105 104 -103 -102 -101 100 99 98 0
-77 76 106 -105 104 -103 -102 -101 100 99 98 0
-73 -106 -105 104 -103 -102 -101 100 99 98 0
-77 -76 -106 -105 104 -103 -102 -101 100 99 98 0
-67 105 -104 -103 -102 -101 100 99 98 0
71 105 -104 -103 -102 -101 100 99 98 0
-77 105 -104 -103 -102 -101 100 99 98 0
-76 105 -104 -103 -102 -101 100 99 98 0
-75 105 -104 -103 -102 -101 100 99 98 0
-74 105 -104 -103 -102 -101 100 99 98 0
-77 105 -104 -103 -102 -101 100 99 98 0
-76 105 -104 -103 -102 -101 100 99 98 0
-75 105 -104 -103 -102 -101 100 99 98 0
67 -105 -104 -103 -102 -101 100 99 98 0
71 106 -105 -104 -103 -102 -101 100 99 98 0
-77 106 -105 -104 -103 -102 -101 100 99 98 0
77 -76 106 -105 -104 -103 -102 -101 100 99 98 0
77 76 75 106 -105 -104 -103 -102 -101 100 99 98 0
-74 -106 -105 -104 -103 -102 -101 100 99 98 0
77 76 -75 -106 -105 -104 -103 -102 -101 100 99 98 0
64 65 67 66 57 58 60 59 -100 99 98 0
-57 102 101 -100 99 98 0
65 102 101 -100 99 98 0
70 102 101 -100 99 98 0
69 102 101 -100 99 98 0
-64 102 101 -100 99 98 0
70 102 101 -100 99 98 0
69 102 101 -100 99 98 0
57 -102 101 -100 99 98 0
65 103 -102 101 -100 99 98 0
70 103 -102 101 -100 99 98 0
-70 -69 103 -102 101 -100 99 98 0
-64 -103 -102 101 -100 99 98 0
-70 69 -103 -102 101 -100 99 98 0
-58 103 102 -101 -100 99 98 0
66 103 102 -101 -100 99 98 0
-70 103 102 -101 -100 99 98 0
-69 103 102 -101 -100 99 98 0
-65 103 102 -101 -100 99 98 0
-70 103 102 -101 -100 99 98 0
-69 103 102 -101 -100 99 98 0
58 -103 102 -101 -100 99 98 0
66 104 -103 102 -101 -100 99 98 0
-70 104 -103 102 -101 -100 99 98 0
70 69 104 -103 102 -101 -100 99 98 0
-65 -104 -103 102 -101 -100 99 98 0
70 -69 -104 -103 102 -101 -100 99 98 0
-59 104 103 -102 -101 -100 99 98 0
67 104 103 -102 -101 -100 99 98 0
70 104 103 -102 -101 -100 99 98 0
-69 104 103 -102 -101 -100 99 98 0
-66 104 103 -102 -101 -100 99 98 0
70 104 103 -102 -101 -100 99 98 0
-69 104 103 -102 -101 -100 99 98 0
59 -104 103 -102 -101 -100 99 98 0
67 105 -104 103 -102 -101 -100 99 98 0
70 105 -104 103 -102 -101 -100 99 98 0
-70 69 105 -104 103 -102 -101 -100 99 98 0
-66 -105 -104 103 -102 -101 -100 99 98 0
-70 -69 -105 -104 103 -102 -101 -100 99 98 0
-60 104 -103 -102 -101 -100 99 98 0
64 104 -103 -102 -101 -100 99 98 0
-70 104 -103 -102 -101 -100 99 98 0
-69 104 -103 -102 -101 -100 99 98 0
-68 104 -103 -102 -101 -100 99 98 0
-67 104 -103 -102 -101 -100 99 98 0
-70 104 -103 -102 -101 -100 99 98 0
-69 104 -103 -102 -101 -100 99 98 0
-68 104 -103 -102 -101 -100 99 98 0
60 -104 -103 -102 -101 -100 99 98 0
64 105 -104 -103 -102 -101 -100 99 98 0
-70 105 -104 -103 -102 -101 -100 99 98 0
70 -69 105 -104 -103 -102 -101 -100 99 98 0
70 69 68 105 -104 -103 -102 -101 -100 99 98 0
-67 -105 -104 -103 -102 -101 -100 99 98 0
70 69 -68 -105 -104 -103 -102 -101 -100 99 98 0
57 58 60 59 50 51 53 52 -99 98 0
-50 101 100 -99 98 0
58 101 100 -99 98 0
63 101 100 -99 98 0
62 101 100 -99 98 0
-57 101 100 -99 98 0
63 101 100 -99 98 0
62 101 100 -99 98 0
50 -101 100 -99 98 0
58 102 -101 100 -99 98 0
63 102 -101 100 -99 98 0
-63 -62 102 -101 100 -99 98 0
-57 -102 -101 100 -99 98 0
-63 62 -102 -101 100 -99 98 0
-51 102 101 -100 -99 98 0
59 102 101 -100 -99 98 0
-63 102 101 -100 -99 98 0
-62 102 101 -100 -99 98 0
-58 102 101 -100 -99 98 0
-63 102 101 -100 -99 98 0
-62 102 101 -100 -99 98 0
51 -102 101 -100 -99 98 0
59 103 -102 101 -100 -99 98 0
-63 103 -102 101 -100 -99 98 0
63 62 103 -102 101 -100 -99 98 0
-58 -103 -102 101 -100 -99 98 0
63 -62 -103 -102 101 -100 -99 98 0
-52 103 102 -101 -100 -99 98 0
60 103 102 -101 -100 -99 98 0
63 103 102 -101 -100 -99 98 0
-62 103 102 -101 -100 -99 98 0
-59 103 102 -101 -100 -99 98 0
63 103 102 -101 -100 -99 98 0
-62 103 102 -101 -100 -99 98 0
52 -103 102 -101 -100 -99 98 0
60 104 -103 102 -101 -100 -99 98 0
63 104 -103 102 -101 -100 -99 98 0
-63 62 104 -103 102 -101 -100 -99 98 0
-59 -104 -103 102 -101 -100 -99 98 0
-63 -62 -104 -103 102 -101 -100 -99 98 0
-53 103 -102 -101 -100 -99 98 0
57 103 -102 -101 -100 -99 98 0
-63 103 -102 -101 -100 -99 98 0
-62 103 -102 -101 -100 -99 98 0
-61 103 -102 -101 -100 -99 98 0
-60 103 -102 -101 -100 -99 98 0
-63 103 -102 -101 -100 -99 98 0
-62 103 -102 -101 -100 -99 98 0
-61 103 -102 -101 -100 -99 98 0
53 -103 -102 -101 -100 -99 98 0
57 104 -103 -102 -101 -100 -99 98 0
-63 104 -103 -102 -101 -100 -99 98 0
63 -62 104 -103 -102 -101 -100 -99 98 0
63 62 61 104 -103 -102 -101 -100 -99 98 0
-60 -104 -103 -102 -101 -100 -99 98 0
63 62 -61 -104 -103 -102 -101 -100 -99 98 0
7 56 6 55 103 102 101 100 99 -98 0
7 56 -55 -6 103 102 101 100 99 -98 0
-56 -7 6 55 103 102 101 100 99 -98 0
-56 -7 -55 -6 103 102 101 100 99 -98 0
5 54 -103 102 101 100 99 -98 0
-54 -5 -103 102 101 100 99 -98 0
4 53 -102 101 100 99 -98 0
-53 -4 -102 101 100 99 -98 0
3 52 -101 100 99 -98 0
-52 -3 -101 100 99 -98 0
2 51 -100 99 -98 0
-51 -2 -100 99 -98 0
1 50 -99 -98 0
-50 -1 -99 -98 0
